WARNING: for repeatability, setting FPU to use double precision
============================[ Problem Statistics ]=============================
|                                                                             |
|  Number of variables:           100                                         |
|  Number of clauses:             449                                         |
|  Parse time:                   0.00 s                                       |
|  Eliminated clauses:           0.00 Mb                                      |
|  Simplification time:          0.00 s                                       |
|                                                                             |
============================[ Search Statistics ]==============================
| Conflicts |          ORIGINAL         |          LEARNT          | Progress |
|           |    Vars  Clauses Literals |    Limit  Clauses Lit/Cl |          |
===============================================================================
|       100 |      98      446     1356 |      163      100      7 |  0.020 % |
|       250 |      98      446     1356 |      179      162      7 |  0.020 % |
===============================================================================
restarts              : 3
conflicts             : 329            (85366 /sec)
decisions             : 396            (0.00 % random) (102750 /sec)
propagations          : 7940           (2060197 /sec)
conflict literals     : 2134           (25.36 % deleted)
Memory used           : 13.00 MB
CPU time              : 0.003854 s

SATISFIABLE
